NAME : single
TYPE : ATSP
DIMENSION : 7
EDGE_WEIGHT_TYPE : EXPLICIT
EDGE_WEIGHT_FORMAT : FULL_MATRIX
EDGE_WEIGHT_SECTION
0 700 50300 700 600 200 100 
0 0 100 100 100 400 400 
0 100 0 200 300 700 600 
0 100 200 0 0 400 400 
0 100 300 0 0 300 300 
0 400 700 400 300 0 100 
0 400 600 400 300 100 0 
